(set-info :smt-lib-version 2.6)
(set-logic QF_BV)
(set-info :source nanoxml.model)
(set-info :category "industrial")
(set-info :status sat)
(declare-const P0 Bool)
(declare-const P1 Bool)
(declare-const P2 Bool)
(declare-const P3 Bool)
(declare-const P4 Bool)
(declare-const P5 (_ BitVec 2))
(declare-const P6 Bool)
(assert (or (= P4 true) (not (= P5 (_ bv0 2)))))
(assert (or (= P4 true) (not (= P5 (_ bv1 2)))))
(assert (or (= P4 true) (not (= P5 (_ bv2 2)))))
(assert (or (= P4 true) (not (= P6 false))))
(assert (or (not (= P4 true)) (= P5 (_ bv0 2)) (= P5 (_ bv1 2)) (= P5 (_ bv2 2))))
(assert (or (not (= P4 true)) (= P6 false)))
(check-sat)
(exit)
